; benchmark generated from python API
(set-info :status unknown)
(declare-datatypes ((IntState 0)) (((Mk1 (val1 Int)) (Mk2 (val2 Int)))))
 (declare-fun c_main_~j~6 () Int)
(declare-fun c_main_~k~6 () Int)
(declare-fun c_main_~i~6 () Int)
(assert
 (let (($x132 (exists ((v_nnf_88_st IntState) (val!144 Int) )(let (($x154 (and (<= c_main_~k~6 (+ (val2 v_nnf_88_st) 2)) (<= 4 (val2 v_nnf_88_st)) (<= (+ (* 2 (val2 v_nnf_88_st)) 1) c_main_~j~6))))
 (let (($x52 (not (= v_nnf_88_st (Mk1 val!144)))))
 (and $x52 $x154))))
 ))
 (let (($x124 (<= 1 c_main_~i~6)))
 (let (($x79 (<= 0 c_main_~i~6)))
 (let (($x10 (<= 2 c_main_~i~6)))
 (let ((?x39 (* 2 c_main_~i~6)))
 (let (($x37 (<= ?x39 c_main_~j~6)))
 (let (($x71 (<= 4 c_main_~i~6)))
 (let (($x57 (<= (+ ?x39 1) c_main_~j~6)))
 (let (($x92 (<= 3 c_main_~i~6)))
 (let (($x141 (exists ((v_nnf_86 Int) )(let (($x49 (<= (+ (* 2 v_nnf_86) 1) c_main_~j~6)))
 (let (($x137 (<= 4 v_nnf_86)))
 (and (<= c_main_~k~6 (+ v_nnf_86 1)) $x137 $x49))))
 ))
 (and (and $x92 $x57 $x71 $x37 $x10 $x79 $x141 $x124) (not (and $x92 $x57 $x71 $x37 $x10 $x79 $x124 $x132))))))))))))))
(check-sat)
